MAX: Total_Biomass;
Total_Biomass = Het_C.FinalMass + Aut_C.FinalMass + Met_C.FinalMass;
Het_C.InitialMass = 0.5;
Aut_C.InitialMass = 0.5;
Met_C.InitialMass = 0.5;
DOM_C.InitialMass = 1;
XOM_C.InitialMass = 0;
CH4_C.InitialMass = 0;
NH4_N.InitialMass = 0;
NO3_N.InitialMass = 0;
O2_O.InitialMass = 10;
SO4_S.InitialMass = 0;
CO2_C.InitialMass = 0;
N2_N.InitialMass = 0;
HS_S.InitialMass = 0;
Ox_O.InitialMass = 0;
Het_N.InitialMass = 0.150943396226415 Het_C.InitialMass;
Aut_N.InitialMass = 0.150943396226415 Aut_C.InitialMass;
Met_N.InitialMass = 0.150943396226415 Met_C.InitialMass;
DOM_N.InitialMass = 0.150943396226415 DOM_C.InitialMass;
XOM_N.InitialMass = 0.150943396226415 XOM_C.InitialMass;
Het_N.FinalMass = 0.150943396226415 Het_C.FinalMass;
Aut_N.FinalMass = 0.150943396226415 Aut_C.FinalMass;
Met_N.FinalMass = 0.150943396226415 Met_C.FinalMass;
DOM_N.FinalMass = 0.150943396226415 DOM_C.FinalMass;
XOM_N.FinalMass = 0.150943396226415 XOM_C.FinalMass;
-Inf < Het.RespEnergy <= 0;
-Inf < Aut.RespEnergy <= 0;
-Inf < Met.RespEnergy <= 0;
-Inf < HetAssimDOM.Energy <= 0;
-Inf < AutAssimCO2.Energy <= 0;
-Inf < MetAssimCH4.Energy <= 0;
-Inf < HetAssimNO3.Energy <= 0;
-Inf < AutAssimNO3.Energy <= 0;
-Inf < MetAssimNO3.Energy <= 0;
-Inf < HetAssimNH4.Energy <= 0;
-Inf < AutAssimNH4.Energy <= 0;
-Inf < MetAssimNH4.Energy <= 0;
-Inf < CO2_C.FinalMass < +Inf;
-Inf < N2_N.FinalMass < +Inf;
-Inf < HS_S.FinalMass < +Inf;
-Inf < Ox_O.FinalMass < +Inf;
Het.RespEnergy = -2.83e-06 Het_C.FinalMass;
Aut.RespEnergy = -2.83e-06 Aut_C.FinalMass;
Met.RespEnergy = -2.83e-06 Met_C.FinalMass;
Het.Energy = HetAssimDOM.Energy + HetAssimNO3.Energy + HetAssimNH4.Energy + HetAerobicofHet.Energy + HetAerobicofDOM.Energy + HetDenitofHet.Energy + HetDenitofDOM.Energy + HetSulfateRedofHet.Energy + HetSulfateRedofDOM.Energy + HetMethanogenesisofHet.Energy + HetMethanogenesisofDOM.Energy;
Aut.Energy = AutAssimCO2.Energy + AutAssimNO3.Energy + AutAssimNH4.Energy + AutNitrif.Energy;
Met.Energy = MetAssimCH4.Energy + MetAssimNO3.Energy + MetAssimNH4.Energy + MetMethaneOxid.Energy;
0 = Het.RespEnergy + Het.Energy;
0 = Aut.RespEnergy + Aut.Energy;
0 = Met.RespEnergy + Met.Energy;
HetAssimDOM.Energy = -0.000432 HetAssimDOM_DOM_C_Het_C.MassTrans;
HetAssimDOM.Energy = -0.002862 HetAssimDOM_DOM_N_Het_N.MassTrans;
AutAssimCO2.Energy = -0.035 AutAssimCO2_CO2_C_Aut_C.MassTrans;
MetAssimCH4.Energy = -0.00109 MetAssimCH4_CH4_C_Met_C.MassTrans;
HetAssimNO3.Energy = -0.000155 HetAssimNO3_NO3_N_Het_N.MassTrans;
AutAssimNO3.Energy = -0.000155 AutAssimNO3_NO3_N_Aut_N.MassTrans;
MetAssimNO3.Energy = -0.000155 MetAssimNO3_NO3_N_Met_N.MassTrans;
HetAssimNH4.Energy = -3.18e-05 HetAssimNH4_NH4_N_Het_N.MassTrans;
AutAssimNH4.Energy = -3.18e-05 AutAssimNH4_NH4_N_Aut_N.MassTrans;
MetAssimNH4.Energy = -3.18e-05 MetAssimNH4_NH4_N_Met_N.MassTrans;
HetAerobicofHet.Energy = 0.37 HetAerobicofHet_Het_C_CO2_C.MassTrans;
HetAerobicofHet.Energy = 2.45125 HetAerobicofHet_Het_N_NH4_N.MassTrans;
HetAerobicofHet.Energy = 0.185 HetAerobicofHet_O2_O_Ox_O.MassTrans;
HetAerobicofDOM.Energy = 0.37 HetAerobicofDOM_DOM_C_CO2_C.MassTrans;
HetAerobicofDOM.Energy = 2.45125 HetAerobicofDOM_DOM_N_NH4_N.MassTrans;
HetAerobicofDOM.Energy = 0.185 HetAerobicofDOM_O2_O_Ox_O.MassTrans;
HetDenitofHet.Energy = 0.000449333333333333 HetDenitofHet_Het_C_CO2_C.MassTrans;
HetDenitofHet.Energy = 0.00297683333333333 HetDenitofHet_Het_N_NH4_N.MassTrans;
HetDenitofHet.Energy = 0.0001685 HetDenitofHet_NO3_N_N2_N.MassTrans;
HetDenitofDOM.Energy = 0.000449333333333333 HetDenitofDOM_DOM_C_CO2_C.MassTrans;
HetDenitofDOM.Energy = 0.00297683333333333 HetDenitofDOM_DOM_N_NH4_N.MassTrans;
HetDenitofDOM.Energy = 0.0001685 HetDenitofDOM_NO3_N_N2_N.MassTrans;
HetSulfateRedofHet.Energy = 3.8e-05 HetSulfateRedofHet_Het_C_CO2_C.MassTrans;
HetSulfateRedofHet.Energy = 0.00025175 HetSulfateRedofHet_Het_N_NH4_N.MassTrans;
HetSulfateRedofHet.Energy = 7.6e-05 HetSulfateRedofHet_SO4_S_HS_S.MassTrans;
HetSulfateRedofDOM.Energy = 3.8e-05 HetSulfateRedofDOM_DOM_C_CO2_C.MassTrans;
HetSulfateRedofDOM.Energy = 0.00025175 HetSulfateRedofDOM_DOM_N_NH4_N.MassTrans;
HetSulfateRedofDOM.Energy = 7.6e-05 HetSulfateRedofDOM_SO4_S_HS_S.MassTrans;
HetMethanogenesisofHet.Energy = 5.6e-05 HetMethanogenesisofHet_Het_C_CO2_C.MassTrans;
HetMethanogenesisofHet.Energy = 5.6e-05 HetMethanogenesisofHet_Het_C_CH4_C.MassTrans;
HetMethanogenesisofHet.Energy = 0.0001855 HetMethanogenesisofHet_Het_N_NH4_N.MassTrans;
HetMethanogenesisofDOM.Energy = 5.6e-05 HetMethanogenesisofDOM_DOM_C_CO2_C.MassTrans;
HetMethanogenesisofDOM.Energy = 5.6e-05 HetMethanogenesisofDOM_DOM_C_CH4_C.MassTrans;
HetMethanogenesisofDOM.Energy = 0.0001855 HetMethanogenesisofDOM_DOM_N_NH4_N.MassTrans;
AutNitrif.Energy = 0.000124125 AutNitrif_NH4_N_NO3_N.MassTrans;
AutNitrif.Energy = 8.275e-05 AutNitrif_O2_O_Ox_O.MassTrans;
MetMethaneOxid.Energy = 0.000818 MetMethaneOxid_CH4_C_CO2_C.MassTrans;
MetMethaneOxid.Energy = 0.0002045 MetMethaneOxid_O2_O_Ox_O.MassTrans;
Het_C.FinalMass = Het_C.InitialMass + HetAssimDOM_DOM_C_Het_C.MassTrans - HetAerobicofHet_Het_C_CO2_C.MassTrans - HetDenitofHet_Het_C_CO2_C.MassTrans - HetSulfateRedofHet_Het_C_CO2_C.MassTrans - HetMethanogenesisofHet_Het_C_CO2_C.MassTrans - HetMethanogenesisofHet_Het_C_CH4_C.MassTrans;
Het_N.FinalMass = Het_N.InitialMass + HetAssimDOM_DOM_N_Het_N.MassTrans + HetAssimNO3_NO3_N_Het_N.MassTrans + HetAssimNH4_NH4_N_Het_N.MassTrans - HetAerobicofHet_Het_N_NH4_N.MassTrans - HetDenitofHet_Het_N_NH4_N.MassTrans - HetSulfateRedofHet_Het_N_NH4_N.MassTrans - HetMethanogenesisofHet_Het_N_NH4_N.MassTrans;
Aut_C.FinalMass = Aut_C.InitialMass + AutAssimCO2_CO2_C_Aut_C.MassTrans - AutDecay_Aut_C_XOM_C.MassTrans;
Aut_N.FinalMass = Aut_N.InitialMass + AutAssimNO3_NO3_N_Aut_N.MassTrans + AutAssimNH4_NH4_N_Aut_N.MassTrans - AutDecay_Aut_N_XOM_N.MassTrans;
Met_C.FinalMass = Met_C.InitialMass + MetAssimCH4_CH4_C_Met_C.MassTrans - MetDecay_Met_C_XOM_C.MassTrans;
Met_N.FinalMass = Met_N.InitialMass + MetAssimNO3_NO3_N_Met_N.MassTrans + MetAssimNH4_NH4_N_Met_N.MassTrans - MetDecay_Met_N_XOM_N.MassTrans;
DOM_C.FinalMass = DOM_C.InitialMass - HetAssimDOM_DOM_C_Het_C.MassTrans - HetAerobicofDOM_DOM_C_CO2_C.MassTrans - HetDenitofDOM_DOM_C_CO2_C.MassTrans - HetSulfateRedofDOM_DOM_C_CO2_C.MassTrans - HetMethanogenesisofDOM_DOM_C_CO2_C.MassTrans - HetMethanogenesisofDOM_DOM_C_CH4_C.MassTrans;
DOM_N.FinalMass = DOM_N.InitialMass - HetAssimDOM_DOM_N_Het_N.MassTrans - HetAerobicofDOM_DOM_N_NH4_N.MassTrans - HetDenitofDOM_DOM_N_NH4_N.MassTrans - HetSulfateRedofDOM_DOM_N_NH4_N.MassTrans - HetMethanogenesisofDOM_DOM_N_NH4_N.MassTrans;
XOM_C.FinalMass = XOM_C.InitialMass + AutDecay_Aut_C_XOM_C.MassTrans + MetDecay_Met_C_XOM_C.MassTrans;
XOM_N.FinalMass = XOM_N.InitialMass + AutDecay_Aut_N_XOM_N.MassTrans + MetDecay_Met_N_XOM_N.MassTrans;
CH4_C.FinalMass = CH4_C.InitialMass + HetMethanogenesisofHet_Het_C_CH4_C.MassTrans + HetMethanogenesisofDOM_DOM_C_CH4_C.MassTrans - MetAssimCH4_CH4_C_Met_C.MassTrans - MetMethaneOxid_CH4_C_CO2_C.MassTrans;
NH4_N.FinalMass = NH4_N.InitialMass + HetAerobicofHet_Het_N_NH4_N.MassTrans + HetAerobicofDOM_DOM_N_NH4_N.MassTrans + HetDenitofHet_Het_N_NH4_N.MassTrans + HetDenitofDOM_DOM_N_NH4_N.MassTrans + HetSulfateRedofHet_Het_N_NH4_N.MassTrans + HetSulfateRedofDOM_DOM_N_NH4_N.MassTrans + HetMethanogenesisofHet_Het_N_NH4_N.MassTrans + HetMethanogenesisofDOM_DOM_N_NH4_N.MassTrans - HetAssimNH4_NH4_N_Het_N.MassTrans - AutAssimNH4_NH4_N_Aut_N.MassTrans - MetAssimNH4_NH4_N_Met_N.MassTrans - AutNitrif_NH4_N_NO3_N.MassTrans;
NO3_N.FinalMass = NO3_N.InitialMass + AutNitrif_NH4_N_NO3_N.MassTrans - HetAssimNO3_NO3_N_Het_N.MassTrans - AutAssimNO3_NO3_N_Aut_N.MassTrans - MetAssimNO3_NO3_N_Met_N.MassTrans - HetDenitofHet_NO3_N_N2_N.MassTrans - HetDenitofDOM_NO3_N_N2_N.MassTrans;
O2_O.FinalMass = O2_O.InitialMass - HetAerobicofHet_O2_O_Ox_O.MassTrans - HetAerobicofDOM_O2_O_Ox_O.MassTrans - AutNitrif_O2_O_Ox_O.MassTrans - MetMethaneOxid_O2_O_Ox_O.MassTrans;
SO4_S.FinalMass = SO4_S.InitialMass - HetSulfateRedofHet_SO4_S_HS_S.MassTrans - HetSulfateRedofDOM_SO4_S_HS_S.MassTrans;
CO2_C.FinalMass = CO2_C.InitialMass + HetAerobicofHet_Het_C_CO2_C.MassTrans + HetAerobicofDOM_DOM_C_CO2_C.MassTrans + HetDenitofHet_Het_C_CO2_C.MassTrans + HetDenitofDOM_DOM_C_CO2_C.MassTrans + HetSulfateRedofHet_Het_C_CO2_C.MassTrans + HetSulfateRedofDOM_DOM_C_CO2_C.MassTrans + HetMethanogenesisofHet_Het_C_CO2_C.MassTrans + HetMethanogenesisofDOM_DOM_C_CO2_C.MassTrans + MetMethaneOxid_CH4_C_CO2_C.MassTrans - AutAssimCO2_CO2_C_Aut_C.MassTrans;
N2_N.FinalMass = N2_N.InitialMass + HetDenitofHet_NO3_N_N2_N.MassTrans + HetDenitofDOM_NO3_N_N2_N.MassTrans;
HS_S.FinalMass = HS_S.InitialMass + HetSulfateRedofHet_SO4_S_HS_S.MassTrans + HetSulfateRedofDOM_SO4_S_HS_S.MassTrans;
Ox_O.FinalMass = Ox_O.InitialMass + HetAerobicofHet_O2_O_Ox_O.MassTrans + HetAerobicofDOM_O2_O_Ox_O.MassTrans + AutNitrif_O2_O_Ox_O.MassTrans + MetMethaneOxid_O2_O_Ox_O.MassTrans;
Het_C.InitialMass >= HetAerobicofHet_Het_C_CO2_C.MassTrans + HetDenitofHet_Het_C_CO2_C.MassTrans + HetSulfateRedofHet_Het_C_CO2_C.MassTrans + HetMethanogenesisofHet_Het_C_CO2_C.MassTrans + HetMethanogenesisofHet_Het_C_CH4_C.MassTrans;
Het_N.InitialMass >= HetAerobicofHet_Het_N_NH4_N.MassTrans + HetDenitofHet_Het_N_NH4_N.MassTrans + HetSulfateRedofHet_Het_N_NH4_N.MassTrans + HetMethanogenesisofHet_Het_N_NH4_N.MassTrans;
Aut_C.InitialMass >= AutDecay_Aut_C_XOM_C.MassTrans;
Aut_N.InitialMass >= AutDecay_Aut_N_XOM_N.MassTrans;
Met_C.InitialMass >= MetDecay_Met_C_XOM_C.MassTrans;
Met_N.InitialMass >= MetDecay_Met_N_XOM_N.MassTrans;
DOM_C.InitialMass >= HetAssimDOM_DOM_C_Het_C.MassTrans + HetAerobicofDOM_DOM_C_CO2_C.MassTrans + HetDenitofDOM_DOM_C_CO2_C.MassTrans + HetSulfateRedofDOM_DOM_C_CO2_C.MassTrans + HetMethanogenesisofDOM_DOM_C_CO2_C.MassTrans + HetMethanogenesisofDOM_DOM_C_CH4_C.MassTrans;
DOM_N.InitialMass >= HetAssimDOM_DOM_N_Het_N.MassTrans + HetAerobicofDOM_DOM_N_NH4_N.MassTrans + HetDenitofDOM_DOM_N_NH4_N.MassTrans + HetSulfateRedofDOM_DOM_N_NH4_N.MassTrans + HetMethanogenesisofDOM_DOM_N_NH4_N.MassTrans;
CH4_C.InitialMass >= MetAssimCH4_CH4_C_Met_C.MassTrans + MetMethaneOxid_CH4_C_CO2_C.MassTrans;
NH4_N.InitialMass >= AutAssimNH4_NH4_N_Aut_N.MassTrans + MetAssimNH4_NH4_N_Met_N.MassTrans + AutNitrif_NH4_N_NO3_N.MassTrans;
NO3_N.InitialMass >= HetAssimNO3_NO3_N_Het_N.MassTrans + AutAssimNO3_NO3_N_Aut_N.MassTrans + MetAssimNO3_NO3_N_Met_N.MassTrans + HetDenitofHet_NO3_N_N2_N.MassTrans + HetDenitofDOM_NO3_N_N2_N.MassTrans;
O2_O.InitialMass >= HetAerobicofHet_O2_O_Ox_O.MassTrans + HetAerobicofDOM_O2_O_Ox_O.MassTrans + AutNitrif_O2_O_Ox_O.MassTrans + MetMethaneOxid_O2_O_Ox_O.MassTrans;
SO4_S.InitialMass >= HetSulfateRedofHet_SO4_S_HS_S.MassTrans + HetSulfateRedofDOM_SO4_S_HS_S.MassTrans;
